Ag8  Ge  S6                             
   1.00000000000000     
    15.2668190975277653    0.0000000000000000    0.0000000000000000
     0.0000000000000000    7.6188597001744238    0.0000000000000000
     0.0000000000000000    0.0000000000000000   10.7243991336164779
   Ag   Ge   S 
    32     4    24
Direct
  0.0152312771574079  0.0222415448187389  0.0327758117518315
  0.9847687008425902  0.9777584511812678  0.5327757917518370
  0.5152312991574098  0.4777584511812679  0.0327758117518315
  0.4847687308425927  0.5222415488187322  0.5327757917518370
  0.0642258136162970  0.2396742256377642  0.2521776538629267
  0.9357741903837034  0.7603257593622381  0.7521776538629267
  0.5642258096162966  0.2603257593622381  0.2521776538629267
  0.4357741903837034  0.7396742406377619  0.7521776538629267
  0.1292690868353593  0.2824433725128984  0.7846665562012241
  0.8707309281646383  0.7175565974871063  0.2846665562012240
  0.6292690718353617  0.2175566274870946  0.7846665562012241
  0.3707309281646384  0.7824434025128937  0.2846665562012240
  0.2276323693404292  0.0091651814125010  0.0112987516045823
  0.7723676006595611  0.9908348475874977  0.5112987276045875
  0.7276323993404389  0.4908348175874883  0.0112987516045823
  0.2723676306595708  0.5091651524125023  0.5112987276045875
  0.2612126273304384  0.1299369250667234  0.3288302593423674
  0.7387873726695616  0.8700630749332766  0.8288302893423699
  0.7612126273304384  0.3700630749332765  0.3288302593423674
  0.2387873726695616  0.6299369250667234  0.8288302893423699
  0.2657299555552370  0.3821648795462186  0.1166067999390825
  0.7342700734447689  0.6178351204537814  0.6166068299390920
  0.7657299265552311  0.1178351204537814  0.1166067999390825
  0.2342700444447629  0.8821648795462186  0.6166068299390920
  0.4092641381199158  0.1244966050983392  0.1044395815020273
  0.5907358318800889  0.8755033729016589  0.6044395965020180
  0.9092641681199111  0.3755034029016615  0.1044395815020273
  0.0907358618800842  0.6244966270983411  0.6044395965020180
  0.4357858869113339  0.0702581774652018  0.4388839956548942
  0.5642141130886590  0.9297418445348000  0.9388839666548883
  0.9357858869113410  0.4297418145347975  0.4388839956548942
  0.0642141130886590  0.5702581554652000  0.9388839666548883
  0.1235063394999365  0.7402671413361668  0.2665515943012715
  0.8764936605000636  0.2597328586638333  0.7665515643012760
  0.6235063394999364  0.7597328586638332  0.2665515943012715
  0.3764936605000635  0.2402671413361667  0.7665515643012760
  0.9950119265120004  0.2661513563466367  0.6434267749721871
  0.0049880994880017  0.7338486146533574  0.1434267749721872
  0.4950119005119983  0.2338486436533634  0.6434267749721871
  0.5049880704880029  0.7661513853466426  0.1434267749721872
  0.1229672217828131  0.2685686175790440  0.0205944044758099
  0.8770328082171751  0.7314313824209631  0.5205944214758077
  0.6229671917828249  0.2314313824209560  0.0205944044758099
  0.3770327782171869  0.7685686175790369  0.5205944214758077
  0.1204846110880338  0.5033214282706204  0.3925704554702561
  0.8795153669119714  0.4966786017293678  0.8925704554702562
  0.6204846330880286  0.9966785717293796  0.3925704554702561
  0.3795153969119668  0.0033213982706322  0.8925704554702562
  0.2577318238584367  0.2301896947303999  0.6443347811975183
  0.7422681761415562  0.7698103202696048  0.1443347811975111
  0.7577318238584438  0.2698103202696048  0.6443347811975183
  0.2422681761415633  0.7301896797303952  0.1443347811975111
  0.3871971899741414  0.3151060221459644  0.2858348814492426
  0.6128028400258539  0.6848939778540426  0.7858348514492400
  0.8871971599741461  0.1848939778540356  0.2858348814492426
  0.1128028100258586  0.8151060221459574  0.7858348514492400
  0.6259466679930744  0.5200783262290777  0.3900677012747527
  0.3740533320069256  0.4799216737709294  0.8900677012747527
  0.1259466679930744  0.9799216737709223  0.3900677012747527
  0.8740533320069256  0.0200783262290706  0.8900677012747527
 
  0.00000000E+00  0.00000000E+00  0.00000000E+00
  0.00000000E+00  0.00000000E+00  0.00000000E+00
  0.00000000E+00  0.00000000E+00  0.00000000E+00
  0.00000000E+00  0.00000000E+00  0.00000000E+00
  0.00000000E+00  0.00000000E+00  0.00000000E+00
  0.00000000E+00  0.00000000E+00  0.00000000E+00
  0.00000000E+00  0.00000000E+00  0.00000000E+00
  0.00000000E+00  0.00000000E+00  0.00000000E+00
  0.00000000E+00  0.00000000E+00  0.00000000E+00
  0.00000000E+00  0.00000000E+00  0.00000000E+00
  0.00000000E+00  0.00000000E+00  0.00000000E+00
  0.00000000E+00  0.00000000E+00  0.00000000E+00
  0.00000000E+00  0.00000000E+00  0.00000000E+00
  0.00000000E+00  0.00000000E+00  0.00000000E+00
  0.00000000E+00  0.00000000E+00  0.00000000E+00
  0.00000000E+00  0.00000000E+00  0.00000000E+00
  0.00000000E+00  0.00000000E+00  0.00000000E+00
  0.00000000E+00  0.00000000E+00  0.00000000E+00
  0.00000000E+00  0.00000000E+00  0.00000000E+00
  0.00000000E+00  0.00000000E+00  0.00000000E+00
  0.00000000E+00  0.00000000E+00  0.00000000E+00
  0.00000000E+00  0.00000000E+00  0.00000000E+00
  0.00000000E+00  0.00000000E+00  0.00000000E+00
  0.00000000E+00  0.00000000E+00  0.00000000E+00
  0.00000000E+00  0.00000000E+00  0.00000000E+00
  0.00000000E+00  0.00000000E+00  0.00000000E+00
  0.00000000E+00  0.00000000E+00  0.00000000E+00
  0.00000000E+00  0.00000000E+00  0.00000000E+00
  0.00000000E+00  0.00000000E+00  0.00000000E+00
  0.00000000E+00  0.00000000E+00  0.00000000E+00
  0.00000000E+00  0.00000000E+00  0.00000000E+00
  0.00000000E+00  0.00000000E+00  0.00000000E+00
  0.00000000E+00  0.00000000E+00  0.00000000E+00
  0.00000000E+00  0.00000000E+00  0.00000000E+00
  0.00000000E+00  0.00000000E+00  0.00000000E+00
  0.00000000E+00  0.00000000E+00  0.00000000E+00
  0.00000000E+00  0.00000000E+00  0.00000000E+00
  0.00000000E+00  0.00000000E+00  0.00000000E+00
  0.00000000E+00  0.00000000E+00  0.00000000E+00
  0.00000000E+00  0.00000000E+00  0.00000000E+00
  0.00000000E+00  0.00000000E+00  0.00000000E+00
  0.00000000E+00  0.00000000E+00  0.00000000E+00
  0.00000000E+00  0.00000000E+00  0.00000000E+00
  0.00000000E+00  0.00000000E+00  0.00000000E+00
  0.00000000E+00  0.00000000E+00  0.00000000E+00
  0.00000000E+00  0.00000000E+00  0.00000000E+00
  0.00000000E+00  0.00000000E+00  0.00000000E+00
  0.00000000E+00  0.00000000E+00  0.00000000E+00
  0.00000000E+00  0.00000000E+00  0.00000000E+00
  0.00000000E+00  0.00000000E+00  0.00000000E+00
  0.00000000E+00  0.00000000E+00  0.00000000E+00
  0.00000000E+00  0.00000000E+00  0.00000000E+00
  0.00000000E+00  0.00000000E+00  0.00000000E+00
  0.00000000E+00  0.00000000E+00  0.00000000E+00
  0.00000000E+00  0.00000000E+00  0.00000000E+00
  0.00000000E+00  0.00000000E+00  0.00000000E+00
  0.00000000E+00  0.00000000E+00  0.00000000E+00
  0.00000000E+00  0.00000000E+00  0.00000000E+00
  0.00000000E+00  0.00000000E+00  0.00000000E+00
  0.00000000E+00  0.00000000E+00  0.00000000E+00
