Ag8  Si  S6                             
   1.0033000000000001     
    15.1317764698911148    0.0000000000000000    0.0000000000000000
     0.0000000000000000    7.5889541957424536    0.0000000000000000
     0.0000000000000000    0.0000000000000000   10.6989491089007789
   Ag   Si   S 
    32     4    24
Direct
  0.0141773157644604  0.0208130017774485  0.0321914876259728
  0.9858226622355378  0.9791869942225512  0.5321914676259853
  0.5141773377644622  0.4791869942225511  0.0321914876259728
  0.4858226922355403  0.5208130057774488  0.5321914676259853
  0.0669935099617394  0.2425897177024380  0.2502919217304747
  0.9330064940382609  0.7574102672975643  0.7502919217304745
  0.5669935059617391  0.2574102672975643  0.2502919217304747
  0.4330064940382610  0.7425897327024357  0.7502919217304745
  0.1289484022951623  0.2849937133919364  0.7818845060983305
  0.8710516127048353  0.7150062566080682  0.2818845060983233
  0.6289483872951647  0.2150062866080636  0.7818845060983305
  0.3710516127048354  0.7849937433919318  0.2818845060983233
  0.2295294705565213  0.0064933337353183  0.0106040181266045
  0.7704704994434691  0.9935066952646876  0.5106039941266167
  0.7295295005565309  0.4935066652646709  0.0106040181266045
  0.2704705294434787  0.5064933047353124  0.5106039941266167
  0.2618653889691359  0.1219068139553063  0.3312975537112491
  0.7381346110308642  0.8780931860446937  0.8312975837112516
  0.7618653889691358  0.3780931860446937  0.3312975537112491
  0.2381346110308641  0.6219068139553063  0.8312975837112516
  0.2599114110983972  0.3809751402212231  0.1279901651294546
  0.7400886179016087  0.6190248597787769  0.6279901951294571
  0.7599113820983913  0.1190248597787769  0.1279901651294546
  0.2400885889016028  0.8809751402212231  0.6279901951294571
  0.4089303928463068  0.1348540842029088  0.0996370798032797
  0.5910695771536979  0.8651458937970894  0.5996370948032773
  0.9089304228463021  0.3651459237970848  0.0996370798032797
  0.0910696071536932  0.6348541062029106  0.5996370948032773
  0.4374896982042475  0.0684617396426977  0.4410704278222156
  0.5625103017957453  0.9315382823573041  0.9410703988222097
  0.9374896982042547  0.4315382523573016  0.4410704278222156
  0.0625103017957454  0.5684617176426959  0.9410703988222097
  0.1224763106585315  0.7438233856959720  0.2657430853562879
  0.8775236893414684  0.2561766143040280  0.7657430553562926
  0.6224763106585316  0.7561766143040280  0.2657430853562879
  0.3775236893414685  0.2438233856959720  0.7657430553562926
  0.9914634785801701  0.2651517452475414  0.6473109251579902
  0.0085365474198320  0.7348482257524527  0.1473109251579902
  0.4914634525801680  0.2348482547524586  0.6473109251579902
  0.5085365184198261  0.7651517742475473  0.1473109251579902
  0.1233730970762705  0.2660115860920171  0.0182580128171158
  0.8766269329237248  0.7339884139079901  0.5182580298171066
  0.6233730670762752  0.2339884139079829  0.0182580128171158
  0.3766269029237295  0.7660115860920099  0.5182580298171066
  0.1195906632248790  0.5155603794272221  0.3866521675999217
  0.8804093147751263  0.4844396505727661  0.8866521675999218
  0.6195906852248737  0.9844396205727779  0.3866521675999217
  0.3804093447751217  0.0155603494272268  0.8866521675999218
  0.2626001887996845  0.2314896855959574  0.6493211438886010
  0.7373998112003155  0.7685103294040474  0.1493211438885939
  0.7626001887996845  0.2685103294040473  0.6493211438886010
  0.2373998112003155  0.7314896705959526  0.1493211438885939
  0.3866637906999650  0.3119936584014916  0.2872457223008589
  0.6133362393000305  0.6880063415985084  0.7872456923008564
  0.8866637606999695  0.1880063415985083  0.2872457223008589
  0.1133362093000350  0.8119936584014916  0.7872456923008564
  0.6235620984978064  0.5262142358638241  0.3835617858316314
  0.3764379015021936  0.4737857641361830  0.8835617858316315
  0.1235620984978064  0.9737857641361759  0.3835617858316314
  0.8764379015021936  0.0262142358638170  0.8835617858316315

