Ag8 S6 Sn                               
   1.00000000000000     
     7.7567298823639614    0.0000000000000000    0.0000000000000000
     0.0000000000000000    7.6693850995584016    0.0000000000000000
     0.0000000000000000    0.0000000000000000   10.9153314641742618
   Sn   Ag   S 
     2    16    12
Direct
  0.0000000000000000  0.7538580797440675  0.1330783839656106
  0.5000000000652491  0.2461419201896104  0.6330783989044589
 -0.0000000000000000  0.3132733417819525  0.1857260043119889
  0.5000000000652491  0.6867266581517326  0.6857259893355031
  0.2015753272501700  0.4845875136584516  0.3890185256064115
  0.2984246876919540  0.5154124565654309  0.8890185255875963
  0.7015753123080460  0.5154124565654309  0.8890185255875963
  0.7984246877572031  0.4845875136584516  0.3890185256064115
 -0.0000000000000000  0.3851520583523360  0.6196045168228940
  0.5000000000652491  0.6148479415813349  0.1196045167476333
  0.2919191860590264  0.1134385535898770  0.2867349755891503
  0.2080808138757244  0.8865614687587953  0.7867349458431455
  0.7919191861242756  0.8865614687587953  0.7867349458431455
  0.7080808139409736  0.1134385535898770  0.2867349755891503
  0.2731836687824125  0.1533912349712185  0.0144594630596444
  0.2268163312828367  0.8466087649624666  0.5144594780925686
  0.7731836687171633  0.8466087649624666  0.5144594780925686
  0.7268163312175805  0.1533912349712185  0.0144594630596444
  0.2421833623368652  0.2396737847031470  0.7566124316240270
  0.2578166227210108  0.7603262300854359  0.2566124315487805
  0.7421833772789892  0.7603262300854359  0.2566124315487805
  0.7578166226557617  0.2396737847031470  0.7566124316240270
  0.0000000000000000  0.2173390352210483  0.4005028478926563
  0.5000000000652491  0.7826609647126367  0.9005028478738482
 -0.0000000000000000  0.4970201795474986  0.0018945057575917
  0.5000000000652491  0.5029798203861793  0.5018944927566563
 -0.0000000000000000  0.9888549740757692  0.9818607985844888
  0.5000000000652491  0.0111450301021724  0.4818607985656737
  0.0000000000000000  0.7197786421516091  0.6400721928092583
  0.5000000000652491  0.2802213579147059  0.1400721928280735
 
  0.00000000E+00  0.00000000E+00  0.00000000E+00
  0.00000000E+00  0.00000000E+00  0.00000000E+00
  0.00000000E+00  0.00000000E+00  0.00000000E+00
  0.00000000E+00  0.00000000E+00  0.00000000E+00
  0.00000000E+00  0.00000000E+00  0.00000000E+00
  0.00000000E+00  0.00000000E+00  0.00000000E+00
  0.00000000E+00  0.00000000E+00  0.00000000E+00
  0.00000000E+00  0.00000000E+00  0.00000000E+00
  0.00000000E+00  0.00000000E+00  0.00000000E+00
  0.00000000E+00  0.00000000E+00  0.00000000E+00
  0.00000000E+00  0.00000000E+00  0.00000000E+00
  0.00000000E+00  0.00000000E+00  0.00000000E+00
  0.00000000E+00  0.00000000E+00  0.00000000E+00
  0.00000000E+00  0.00000000E+00  0.00000000E+00
  0.00000000E+00  0.00000000E+00  0.00000000E+00
  0.00000000E+00  0.00000000E+00  0.00000000E+00
  0.00000000E+00  0.00000000E+00  0.00000000E+00
  0.00000000E+00  0.00000000E+00  0.00000000E+00
  0.00000000E+00  0.00000000E+00  0.00000000E+00
  0.00000000E+00  0.00000000E+00  0.00000000E+00
  0.00000000E+00  0.00000000E+00  0.00000000E+00
  0.00000000E+00  0.00000000E+00  0.00000000E+00
  0.00000000E+00  0.00000000E+00  0.00000000E+00
  0.00000000E+00  0.00000000E+00  0.00000000E+00
  0.00000000E+00  0.00000000E+00  0.00000000E+00
  0.00000000E+00  0.00000000E+00  0.00000000E+00
  0.00000000E+00  0.00000000E+00  0.00000000E+00
  0.00000000E+00  0.00000000E+00  0.00000000E+00
  0.00000000E+00  0.00000000E+00  0.00000000E+00
  0.00000000E+00  0.00000000E+00  0.00000000E+00
