Ag8 S6 Sn                               
   1.00330000000000     
    15.4305275223381049    0.0000000000000000    0.0000000000000000
     0.0000000000000000    7.7140562584942352    0.0000000000000000
     0.0000000000000000    0.0000000000000000   10.8479490390038062
   Ag   Sn   S 
    32     4    24
Direct
  0.0210531205432206  0.0227948612800034  0.0342925329406147
  0.9789468574567776  0.9772051347199963  0.5342925129406201
  0.5210531425432224  0.4772051347199963  0.0342925329406147
  0.4789468874567801  0.5227948652800037  0.5342925129406201
  0.0612867831734251  0.2391494268095176  0.2505091410522127
  0.9387132208265753  0.7608505581904847  0.7505091410522127
  0.5612867791734247  0.2608505581904846  0.2505091410522127
  0.4387132208265752  0.7391494418095153  0.7505091410522127
  0.1284806957261420  0.2818268488214031  0.7882751373770333
  0.8715193192738556  0.7181731211786015  0.2882751373770262
  0.6284806807261444  0.2181731511785898  0.7882751373770333
  0.3715193192738557  0.7818268788213985  0.2882751373770262
  0.2279223078898919  0.0129871265576226  0.0190568215768016
  0.7720776621100985  0.9870129024423762  0.5190567975768067
  0.7279223378899015  0.4870128724423666  0.0190568215768016
  0.2720776921101081  0.5129870975576238  0.5190567975768067
  0.2612203788781524  0.1346117599610816  0.3317154859994963
  0.7387796211218477  0.8653882400389185  0.8317155159994988
  0.7612203788781523  0.3653882400389184  0.3317154859994963
  0.2387796211218477  0.6346117599610815  0.8317155159994988
  0.2699887941715630  0.3791655535945224  0.1125342008306944
  0.7300112348284430  0.6208344464054776  0.6125342308306968
  0.7699887651715570  0.1208344464054776  0.1125342008306944
  0.2300112058284371  0.8791655535945224  0.6125342308306968
  0.4082806252126265  0.1160658404269519  0.1056954096031981
  0.5917193447873781  0.8839341375730463  0.6056954246031888
  0.9082806552126219  0.3839341675730488  0.1056954096031981
  0.0917193747873734  0.6160658624269537  0.6056954246031888
  0.4360981889909559  0.0675376351958423  0.4368105300605478
  0.5639018110090370  0.9324623868041596  0.9368105010605418
  0.9360981889909630  0.4324623568041571  0.4368105300605478
  0.0639018110090370  0.5675376131958404  0.9368105010605418
  0.1246739220182112  0.7399137488332445  0.2655111676715323
  0.8753260779817889  0.2600862511667555  0.7655111376715369
  0.6246739220182111  0.7600862511667555  0.2655111676715323
  0.3753260779817888  0.2399137488332445  0.7655111376715369
  0.0008540975716019  0.2653217329993771  0.6337774771549709
  0.9991459284284002  0.7346782380006170  0.1337774771549710
  0.5008540715715998  0.2346782670006229  0.6337774771549709
  0.4991458994283943  0.7653217619993830  0.1337774771549710
  0.1247250095973034  0.2688307698746408  0.0209917499995070
  0.8752750204026919  0.7311692301253664  0.5209917669995049
  0.6247249795973081  0.2311692301253593  0.0209917499995070
  0.3752749904026966  0.7688307698746336  0.5209917669995049
  0.1202699078550476  0.4894447271607257  0.3993303490228469
  0.8797300701449577  0.5105553028392696  0.8993303490228468
  0.6202699298550423  0.0105552728392743  0.3993303490228469
  0.3797301001449530  0.9894446971607304  0.8993303490228468
  0.2487350898687039  0.2269683643582154  0.6367292110723933
  0.7512649101312961  0.7730316506417895  0.1367292110723934
  0.7487350898687039  0.2730316506417895  0.6367292110723933
  0.2512649101312961  0.7269683493582105  0.1367292110723934
  0.3877559942242506  0.3058704061648254  0.2822009090320260
  0.6122440357757448  0.6941295938351747  0.7822008790320235
  0.8877559642242552  0.1941295938351746  0.2822009090320260
  0.1122440057757494  0.8058704061648253  0.7822008790320235
  0.6261802612682735  0.5052455967799712  0.3956298796061342
  0.3738197387317264  0.4947544032200359  0.8956298796061271
  0.1261802612682735  0.9947544032200288  0.3956298796061342
  0.8738197387317265  0.0052455967799641  0.8956298796061271
 
  0.00000000E+00  0.00000000E+00  0.00000000E+00
  0.00000000E+00  0.00000000E+00  0.00000000E+00
  0.00000000E+00  0.00000000E+00  0.00000000E+00
  0.00000000E+00  0.00000000E+00  0.00000000E+00
  0.00000000E+00  0.00000000E+00  0.00000000E+00
  0.00000000E+00  0.00000000E+00  0.00000000E+00
  0.00000000E+00  0.00000000E+00  0.00000000E+00
  0.00000000E+00  0.00000000E+00  0.00000000E+00
  0.00000000E+00  0.00000000E+00  0.00000000E+00
  0.00000000E+00  0.00000000E+00  0.00000000E+00
  0.00000000E+00  0.00000000E+00  0.00000000E+00
  0.00000000E+00  0.00000000E+00  0.00000000E+00
  0.00000000E+00  0.00000000E+00  0.00000000E+00
  0.00000000E+00  0.00000000E+00  0.00000000E+00
  0.00000000E+00  0.00000000E+00  0.00000000E+00
  0.00000000E+00  0.00000000E+00  0.00000000E+00
  0.00000000E+00  0.00000000E+00  0.00000000E+00
  0.00000000E+00  0.00000000E+00  0.00000000E+00
  0.00000000E+00  0.00000000E+00  0.00000000E+00
  0.00000000E+00  0.00000000E+00  0.00000000E+00
  0.00000000E+00  0.00000000E+00  0.00000000E+00
  0.00000000E+00  0.00000000E+00  0.00000000E+00
  0.00000000E+00  0.00000000E+00  0.00000000E+00
  0.00000000E+00  0.00000000E+00  0.00000000E+00
  0.00000000E+00  0.00000000E+00  0.00000000E+00
  0.00000000E+00  0.00000000E+00  0.00000000E+00
  0.00000000E+00  0.00000000E+00  0.00000000E+00
  0.00000000E+00  0.00000000E+00  0.00000000E+00
  0.00000000E+00  0.00000000E+00  0.00000000E+00
  0.00000000E+00  0.00000000E+00  0.00000000E+00
  0.00000000E+00  0.00000000E+00  0.00000000E+00
  0.00000000E+00  0.00000000E+00  0.00000000E+00
  0.00000000E+00  0.00000000E+00  0.00000000E+00
  0.00000000E+00  0.00000000E+00  0.00000000E+00
  0.00000000E+00  0.00000000E+00  0.00000000E+00
  0.00000000E+00  0.00000000E+00  0.00000000E+00
  0.00000000E+00  0.00000000E+00  0.00000000E+00
  0.00000000E+00  0.00000000E+00  0.00000000E+00
  0.00000000E+00  0.00000000E+00  0.00000000E+00
  0.00000000E+00  0.00000000E+00  0.00000000E+00
  0.00000000E+00  0.00000000E+00  0.00000000E+00
  0.00000000E+00  0.00000000E+00  0.00000000E+00
  0.00000000E+00  0.00000000E+00  0.00000000E+00
  0.00000000E+00  0.00000000E+00  0.00000000E+00
  0.00000000E+00  0.00000000E+00  0.00000000E+00
  0.00000000E+00  0.00000000E+00  0.00000000E+00
  0.00000000E+00  0.00000000E+00  0.00000000E+00
  0.00000000E+00  0.00000000E+00  0.00000000E+00
  0.00000000E+00  0.00000000E+00  0.00000000E+00
  0.00000000E+00  0.00000000E+00  0.00000000E+00
  0.00000000E+00  0.00000000E+00  0.00000000E+00
  0.00000000E+00  0.00000000E+00  0.00000000E+00
  0.00000000E+00  0.00000000E+00  0.00000000E+00
  0.00000000E+00  0.00000000E+00  0.00000000E+00
  0.00000000E+00  0.00000000E+00  0.00000000E+00
  0.00000000E+00  0.00000000E+00  0.00000000E+00
  0.00000000E+00  0.00000000E+00  0.00000000E+00
  0.00000000E+00  0.00000000E+00  0.00000000E+00
  0.00000000E+00  0.00000000E+00  0.00000000E+00
  0.00000000E+00  0.00000000E+00  0.00000000E+00
