Ag8 S6 Sn                               
   1.00000000000000     
    15.4569067290097522    0.0000000000000000    0.0000000000000000
     0.0000000000000000    7.7013598772879543    0.0000000000000000
     0.0000000000000000    0.0000000000000000   10.8472889076946508
   Ag   Sn   S 
    32     4    24
Direct
  0.0205047136487409  0.0223599132508279  0.0333929091531238
  0.9794952643512572  0.9776400827491718  0.5333928891531292
  0.5205047356487428  0.4776400827491717  0.0333929091531238
  0.4794952943512597  0.5223599172508282  0.5333928891531292
  0.0601688904585296  0.2385196080545632  0.2509189409917271
  0.9398311135414708  0.7614803769454391  0.7509189409917271
  0.5601688864585292  0.2614803769454391  0.2509189409917271
  0.4398311135414707  0.7385196230545609  0.7509189409917271
  0.1290321707414595  0.2793160834954068  0.7890533474881370
  0.8709678442585382  0.7206838865045978  0.2890533474881301
  0.6290321557414618  0.2206839165045860  0.7890533474881370
  0.3709678442585382  0.7793161134954022  0.2890533474881301
  0.2269129606576711  0.0131583692632518  0.0161491050715643
  0.7730870093423193  0.9868416597367471  0.5161490810715694
  0.7269129906576807  0.4868416297367375  0.0161491050715643
  0.2730870393423289  0.5131583402632529  0.5161490810715694
  0.2605876693587137  0.1379332246760408  0.3322820962890340
  0.7394123306412864  0.8620667753239593  0.8322821262890364
  0.7605876693587136  0.3620667753239592  0.3322820962890340
  0.2394123306412863  0.6379332246760407  0.8322821262890364
  0.2701621737790952  0.3795754197950187  0.1108644841903046
  0.7298378552209108  0.6204245802049813  0.6108645141903071
  0.7701621447790892  0.1204245802049812  0.1108644841903046
  0.2298378262209048  0.8795754197950187  0.6108645141903071
  0.4076340774850790  0.1142895201191419  0.1078628193516842
  0.5923658925149256  0.8857104578808562  0.6078628343516819
  0.9076341074850744  0.3857104878808587  0.1078628193516842
  0.0923659225149210  0.6142895421191438  0.6078628343516819
  0.4355275165738313  0.0688607112817245  0.4355028251854563
  0.5644724834261615  0.9311393107182773  0.9355027961854503
  0.9355275165738385  0.4311392807182748  0.4355028251854563
  0.0644724834261615  0.5688606892817227  0.9355027961854503
  0.1245678508548270  0.7389002169006171  0.2656051825354399
  0.8754321491451731  0.2610997830993830  0.7656051525354445
  0.6245678508548269  0.7610997830993829  0.2656051825354399
  0.3754321491451730  0.2389002169006171  0.7656051525354445
  0.0012789212534944  0.2666866225806903  0.6340786841094095
  0.9987211047465077  0.7333133484193037  0.1340786841094095
  0.5012788952534923  0.2333133774193097  0.6340786841094095
  0.4987210757465018  0.7666866515806963  0.1340786841094095
  0.1239700275014619  0.2702751508071843  0.0219105558995227
  0.8760300024985335  0.7297248491928228  0.5219105728995205
  0.6239699975014665  0.2297248491928157  0.0219105558995227
  0.3760299724985381  0.7702751508071772  0.5219105728995205
  0.1205516081851061  0.4878937116916151  0.4000364792548279
  0.8794483698148992  0.5121063183083804  0.9000364792548279
  0.6205516301851008  0.0121062883083850  0.4000364792548279
  0.3794483998148946  0.9878936816916196  0.9000364792548279
  0.2489181355986609  0.2275338623932684  0.6361973347299853
  0.7510818644013392  0.7724661526067363  0.1361973347299782
  0.7489181355986608  0.2724661526067363  0.6361973347299853
  0.2510818644013391  0.7275338473932637  0.1361973347299782
  0.3873209042105447  0.3103271917946320  0.2827233119826846
  0.6126791257894506  0.6896728082053680  0.7827232819826822
  0.8873208742105494  0.1896728082053680  0.2827233119826846
  0.1126790957894553  0.8103271917946320  0.7827232819826822
  0.6262774394963013  0.5057128747421971  0.3964819267671157
  0.3737225605036987  0.4942871252578100  0.8964819267671157
  0.1262774394963013  0.9942871252578029  0.3964819267671157
  0.8737225605036987  0.0057128747421899  0.8964819267671157
 
  0.00000000E+00  0.00000000E+00  0.00000000E+00
  0.00000000E+00  0.00000000E+00  0.00000000E+00
  0.00000000E+00  0.00000000E+00  0.00000000E+00
  0.00000000E+00  0.00000000E+00  0.00000000E+00
  0.00000000E+00  0.00000000E+00  0.00000000E+00
  0.00000000E+00  0.00000000E+00  0.00000000E+00
  0.00000000E+00  0.00000000E+00  0.00000000E+00
  0.00000000E+00  0.00000000E+00  0.00000000E+00
  0.00000000E+00  0.00000000E+00  0.00000000E+00
  0.00000000E+00  0.00000000E+00  0.00000000E+00
  0.00000000E+00  0.00000000E+00  0.00000000E+00
  0.00000000E+00  0.00000000E+00  0.00000000E+00
  0.00000000E+00  0.00000000E+00  0.00000000E+00
  0.00000000E+00  0.00000000E+00  0.00000000E+00
  0.00000000E+00  0.00000000E+00  0.00000000E+00
  0.00000000E+00  0.00000000E+00  0.00000000E+00
  0.00000000E+00  0.00000000E+00  0.00000000E+00
  0.00000000E+00  0.00000000E+00  0.00000000E+00
  0.00000000E+00  0.00000000E+00  0.00000000E+00
  0.00000000E+00  0.00000000E+00  0.00000000E+00
  0.00000000E+00  0.00000000E+00  0.00000000E+00
  0.00000000E+00  0.00000000E+00  0.00000000E+00
  0.00000000E+00  0.00000000E+00  0.00000000E+00
  0.00000000E+00  0.00000000E+00  0.00000000E+00
  0.00000000E+00  0.00000000E+00  0.00000000E+00
  0.00000000E+00  0.00000000E+00  0.00000000E+00
  0.00000000E+00  0.00000000E+00  0.00000000E+00
  0.00000000E+00  0.00000000E+00  0.00000000E+00
  0.00000000E+00  0.00000000E+00  0.00000000E+00
  0.00000000E+00  0.00000000E+00  0.00000000E+00
  0.00000000E+00  0.00000000E+00  0.00000000E+00
  0.00000000E+00  0.00000000E+00  0.00000000E+00
  0.00000000E+00  0.00000000E+00  0.00000000E+00
  0.00000000E+00  0.00000000E+00  0.00000000E+00
  0.00000000E+00  0.00000000E+00  0.00000000E+00
  0.00000000E+00  0.00000000E+00  0.00000000E+00
  0.00000000E+00  0.00000000E+00  0.00000000E+00
  0.00000000E+00  0.00000000E+00  0.00000000E+00
  0.00000000E+00  0.00000000E+00  0.00000000E+00
  0.00000000E+00  0.00000000E+00  0.00000000E+00
  0.00000000E+00  0.00000000E+00  0.00000000E+00
  0.00000000E+00  0.00000000E+00  0.00000000E+00
  0.00000000E+00  0.00000000E+00  0.00000000E+00
  0.00000000E+00  0.00000000E+00  0.00000000E+00
  0.00000000E+00  0.00000000E+00  0.00000000E+00
  0.00000000E+00  0.00000000E+00  0.00000000E+00
  0.00000000E+00  0.00000000E+00  0.00000000E+00
  0.00000000E+00  0.00000000E+00  0.00000000E+00
  0.00000000E+00  0.00000000E+00  0.00000000E+00
  0.00000000E+00  0.00000000E+00  0.00000000E+00
  0.00000000E+00  0.00000000E+00  0.00000000E+00
  0.00000000E+00  0.00000000E+00  0.00000000E+00
  0.00000000E+00  0.00000000E+00  0.00000000E+00
  0.00000000E+00  0.00000000E+00  0.00000000E+00
  0.00000000E+00  0.00000000E+00  0.00000000E+00
  0.00000000E+00  0.00000000E+00  0.00000000E+00
  0.00000000E+00  0.00000000E+00  0.00000000E+00
  0.00000000E+00  0.00000000E+00  0.00000000E+00
  0.00000000E+00  0.00000000E+00  0.00000000E+00
  0.00000000E+00  0.00000000E+00  0.00000000E+00
