Ag8  Si  S6                             
   1.00000000000000     
    15.1558209902952576    0.0000000000000000    0.0000000000000000
     0.0000000000000000    7.5852238934166216    0.0000000000000000
     0.0000000000000000    0.0000000000000000   10.6872285994496181
   Ag   Si   S 
    32     4    24
Direct
  0.0139746843822781  0.0208117233100456  0.0323990044609192
  0.9860252936177201  0.9791882726899541  0.5323989844609318
  0.5139747063822799  0.4791882726899541  0.0323990044609192
  0.4860253236177225  0.5208117273100459  0.5323989844609318
  0.0663310712389297  0.2415588204811837  0.2520197920025096
  0.9336689327610707  0.7584411645188185  0.7520197920025096
  0.5663310672389293  0.2584411645188185  0.2520197920025096
  0.4336689327610706  0.7415588354811815  0.7520197920025096
  0.1293030606248761  0.2836361617069534  0.7826993499817789
  0.8706969543751215  0.7163638082930512  0.2826993499817719
  0.6293030456248785  0.2163638382930466  0.7826993499817789
  0.3706969543751216  0.7836361917069488  0.2826993499817719
  0.2284540402259631  0.0073380243133304  0.0094926603789494
  0.7715459297740274  0.9926620046866756  0.5094926363789617
  0.7284540702259726  0.4926619746866589  0.0094926603789494
  0.2715459597740369  0.5073379953133244  0.5094926363789617
  0.2614667057999824  0.1250494178889022  0.3285026609633864
  0.7385332942000176  0.8749505821110978  0.8285026909633890
  0.7614667057999824  0.3749505821110978  0.3285026609633864
  0.2385332942000176  0.6250494178889022  0.8285026909633890
  0.2624394128081237  0.3827966756890092  0.1223272980896554
  0.7375606161918822  0.6172033243109908  0.6223273280896578
  0.7624393838081178  0.1172033243109908  0.1223272980896554
  0.2375605871918763  0.8827966756890092  0.6223273280896578
  0.4095932315875005  0.1303610213549066  0.1020746943830808
  0.5904067384125041  0.8696389566450916  0.6020747093830714
  0.9095932615874959  0.3696389866450870  0.1020746943830808
  0.0904067684124995  0.6303610433549084  0.6020747093830714
  0.4364232667617917  0.0706569817537051  0.4403658409299800
  0.5635767332382012  0.9293430402462968  0.9403658119299741
  0.9364232667617988  0.4293430102462942  0.4403658409299800
  0.0635767332382012  0.5706569597537032  0.9403658119299741
  0.1229140355845610  0.7422980607267842  0.2665690729015910
  0.8770859644154391  0.2577019392732159  0.7665690429015957
  0.6229140355845609  0.7577019392732158  0.2665690729015910
  0.3770859644154390  0.2422980607267841  0.7665690429015957
  0.9914364307841794  0.2658338153713529  0.6481657722626312
  0.0085635952158227  0.7341661556286411  0.1481657722626312
  0.4914364047841773  0.2341661846286471  0.6481657722626312
  0.5085635662158168  0.7658338443713589  0.1481657722626312
  0.1226815007760564  0.2678452442498170  0.0194517965760462
  0.8773185292239389  0.7321547557501901  0.5194518135760440
  0.6226814707760611  0.2321547557501830  0.0194517965760462
  0.3773184992239436  0.7678452442498099  0.5194518135760440
  0.1202197422924525  0.5133169662423317  0.3875301037618212
  0.8797802357075528  0.4866830637576566  0.8875301037618212
  0.6202197642924472  0.9866830337576683  0.3875301037618212
  0.3797802657075481  0.0133169362423363  0.8875301037618212
  0.2625069175944418  0.2318116140384286  0.6488244024379648
  0.7374930824055582  0.7681884009615763  0.1488244024379576
  0.7625069175944418  0.2681884009615761  0.6488244024379648
  0.2374930824055582  0.7318115990384237  0.1488244024379576
  0.3869208503219709  0.3161883447665528  0.2871868602795489
  0.6130791796780245  0.6838116552334472  0.7871868302795464
  0.8869208203219755  0.1838116552334472  0.2871868602795489
  0.1130791496780291  0.8161883447665528  0.7871868302795464
  0.6247891302328217  0.5274767377861417  0.3854506935901464
  0.3752108697671784  0.4725232622138654  0.8854506935901465
  0.1247891302328216  0.9725232622138583  0.3854506935901464
  0.8752108697671783  0.0274767377861346  0.8854506935901465
 
  0.00000000E+00  0.00000000E+00  0.00000000E+00
  0.00000000E+00  0.00000000E+00  0.00000000E+00
  0.00000000E+00  0.00000000E+00  0.00000000E+00
  0.00000000E+00  0.00000000E+00  0.00000000E+00
  0.00000000E+00  0.00000000E+00  0.00000000E+00
  0.00000000E+00  0.00000000E+00  0.00000000E+00
  0.00000000E+00  0.00000000E+00  0.00000000E+00
  0.00000000E+00  0.00000000E+00  0.00000000E+00
  0.00000000E+00  0.00000000E+00  0.00000000E+00
  0.00000000E+00  0.00000000E+00  0.00000000E+00
  0.00000000E+00  0.00000000E+00  0.00000000E+00
  0.00000000E+00  0.00000000E+00  0.00000000E+00
  0.00000000E+00  0.00000000E+00  0.00000000E+00
  0.00000000E+00  0.00000000E+00  0.00000000E+00
  0.00000000E+00  0.00000000E+00  0.00000000E+00
  0.00000000E+00  0.00000000E+00  0.00000000E+00
  0.00000000E+00  0.00000000E+00  0.00000000E+00
  0.00000000E+00  0.00000000E+00  0.00000000E+00
  0.00000000E+00  0.00000000E+00  0.00000000E+00
  0.00000000E+00  0.00000000E+00  0.00000000E+00
  0.00000000E+00  0.00000000E+00  0.00000000E+00
  0.00000000E+00  0.00000000E+00  0.00000000E+00
  0.00000000E+00  0.00000000E+00  0.00000000E+00
  0.00000000E+00  0.00000000E+00  0.00000000E+00
  0.00000000E+00  0.00000000E+00  0.00000000E+00
  0.00000000E+00  0.00000000E+00  0.00000000E+00
  0.00000000E+00  0.00000000E+00  0.00000000E+00
  0.00000000E+00  0.00000000E+00  0.00000000E+00
  0.00000000E+00  0.00000000E+00  0.00000000E+00
  0.00000000E+00  0.00000000E+00  0.00000000E+00
  0.00000000E+00  0.00000000E+00  0.00000000E+00
  0.00000000E+00  0.00000000E+00  0.00000000E+00
  0.00000000E+00  0.00000000E+00  0.00000000E+00
  0.00000000E+00  0.00000000E+00  0.00000000E+00
  0.00000000E+00  0.00000000E+00  0.00000000E+00
  0.00000000E+00  0.00000000E+00  0.00000000E+00
  0.00000000E+00  0.00000000E+00  0.00000000E+00
  0.00000000E+00  0.00000000E+00  0.00000000E+00
  0.00000000E+00  0.00000000E+00  0.00000000E+00
  0.00000000E+00  0.00000000E+00  0.00000000E+00
  0.00000000E+00  0.00000000E+00  0.00000000E+00
  0.00000000E+00  0.00000000E+00  0.00000000E+00
  0.00000000E+00  0.00000000E+00  0.00000000E+00
  0.00000000E+00  0.00000000E+00  0.00000000E+00
  0.00000000E+00  0.00000000E+00  0.00000000E+00
  0.00000000E+00  0.00000000E+00  0.00000000E+00
  0.00000000E+00  0.00000000E+00  0.00000000E+00
  0.00000000E+00  0.00000000E+00  0.00000000E+00
  0.00000000E+00  0.00000000E+00  0.00000000E+00
  0.00000000E+00  0.00000000E+00  0.00000000E+00
  0.00000000E+00  0.00000000E+00  0.00000000E+00
  0.00000000E+00  0.00000000E+00  0.00000000E+00
  0.00000000E+00  0.00000000E+00  0.00000000E+00
  0.00000000E+00  0.00000000E+00  0.00000000E+00
  0.00000000E+00  0.00000000E+00  0.00000000E+00
  0.00000000E+00  0.00000000E+00  0.00000000E+00
  0.00000000E+00  0.00000000E+00  0.00000000E+00
  0.00000000E+00  0.00000000E+00  0.00000000E+00
  0.00000000E+00  0.00000000E+00  0.00000000E+00
  0.00000000E+00  0.00000000E+00  0.00000000E+00
