Ag8  Ge  S6                             
  0.99700000000000000     
    15.2879425824324748    0.0000000000000000    0.0000000000000000
     0.0000000000000000    7.6105408236584049    0.0000000000000000
     0.0000000000000000    0.0000000000000000   10.7212874906230127
   Ag   Ge   S 
    32     4    24
Direct
  0.0150032311956733  0.0217208519368121  0.0326630833121142
  0.9849967468043249  0.9782791440631947  0.5326630633121198
  0.5150032531956751  0.4782791440631947  0.0326630833121142
  0.4849967768043274  0.5217208559368053  0.5326630633121198
  0.0633457914822256  0.2388688373021359  0.2531759656257587
  0.9366542125177747  0.7611311476978665  0.7531759656257587
  0.5633457874822253  0.2611311476978664  0.2531759656257587
  0.4366542125177748  0.7388688523021335  0.7531759656257587
  0.1299240594436464  0.2805879889437275  0.7854704847223832
  0.8700759555563513  0.7194119810562770  0.2854704847223832
  0.6299240444436487  0.2194120110562654  0.7854704847223832
  0.3700759555563513  0.7805880189437230  0.2854704847223832
  0.2264538554122582  0.0092631741600504  0.0095967347568370
  0.7735461145877321  0.9907368548399484  0.5095967107568421
  0.7264538854122679  0.4907368248399389  0.0095967347568370
  0.2735461445877418  0.5092631451600516  0.5095967107568421
  0.2607899906813817  0.1321503385133989  0.3274403558069536
  0.7392100093186184  0.8678496614866011  0.8274403858069560
  0.7607899906813816  0.3678496614866010  0.3274403558069536
  0.2392100093186183  0.6321503385133989  0.8274403858069560
  0.2669168677038344  0.3827151845676293  0.1131686727961637
  0.7330831612961715  0.6172848154323707  0.6131687027961733
  0.7669168387038285  0.1172848154323707  0.1131686727961637
  0.2330831322961655  0.8827151845676293  0.6131687027961733
  0.4092165783455632  0.1211865495007721  0.1066896494291930
  0.5907833916544415  0.8788134284992261  0.6066896644291835
  0.9092166083455585  0.3788134584992285  0.1066896494291930
  0.0907834216544368  0.6211865715007739  0.6066896644291835
  0.4351867772465170  0.0718179546782691  0.4378670976471419
  0.5648132227534759  0.9281820673217399  0.9378670686471289
  0.9351867772465241  0.4281820373217374  0.4378670976471419
  0.0648132227534759  0.5718179326782601  0.9378670686471289
  0.1235649384040479  0.7387731301911294  0.2670306869948003
  0.8764350615959592  0.2612268698088776  0.7670306569948049
  0.6235649384040408  0.7612268698088706  0.2670306869948003
  0.3764350615959521  0.2387731301911295  0.7670306569948049
  0.9953042134360909  0.2673385832248665  0.6440484524745148
  0.0046958125639112  0.7326613877751206  0.1440484524745148
  0.4953041874360888  0.2326614167751336  0.6440484524745148
  0.5046957835639124  0.7673386122248794  0.1440484524745148
  0.1222363739221839  0.2700071420461811  0.0215777619673645
  0.8777636560778115  0.7299928579538260  0.5215777789673623
  0.6222363439221885  0.2299928579538189  0.0215777619673645
  0.3777636260778161  0.7700071420461740  0.5215777789673623
  0.1209443179904927  0.5013521889194799  0.3933740298202631
  0.8790556600095126  0.4986478410805084  0.8933740298202630
  0.6209443399904874  0.9986478110805201  0.3933740298202631
  0.3790556900095080  0.0013521589194916  0.8933740298202630
  0.2579289500908634  0.2303323122595804  0.6438628375627234
  0.7420710499091294  0.7696677027404244  0.1438628375627163
  0.7579289500908706  0.2696677027404244  0.6438628375627234
  0.2420710499091366  0.7303322972595756  0.1438628375627163
  0.3870309586805461  0.3188939095898660  0.2859574663210381
  0.6129690713194493  0.6811060904101410  0.7859574363210357
  0.8870309286805507  0.1811060904101340  0.2859574663210381
  0.1129690413194539  0.8188939095898590  0.7859574363210357
  0.6265375430252893  0.5209891929902587  0.3911367237627246
  0.3734624569747106  0.4790108070097485  0.8911367237627176
  0.1265375430252894  0.9790108070097413  0.3911367237627246
  0.8734624569747107  0.0209891929902515  0.8911367237627176
