Ag8  Ge  S6                             
   1.0033000000000001     
    15.2400286379237393    0.0000000000000000    0.0000000000000000
     0.0000000000000000    7.6235232980347272    0.0000000000000000
     0.0000000000000000    0.0000000000000000   10.7366795104186981
   Ag   Ge   S 
    32     4    24
Direct
  0.0152425166704212  0.0226709143707538  0.0327267551685160
  0.9847574613295769  0.9773290816292529  0.5327267351685215
  0.5152425386704231  0.4773290816292530  0.0327267551685160
  0.4847574913295795  0.5226709183707471  0.5327267351685215
  0.0655542182228208  0.2404949937921460  0.2503747308669282
  0.9344457857771795  0.7595049912078563  0.7503747308669283
  0.5655542142228205  0.2595049912078564  0.2503747308669282
  0.4344457857771795  0.7404950087921437  0.7503747308669283
  0.1288009807747183  0.2846080124741013  0.7835709550984362
  0.8711990342252794  0.7153919575259033  0.2835709550984362
  0.6288009657747206  0.2153919875258916  0.7835709550984362
  0.3711990342252794  0.7846080424740967  0.2835709550984362
  0.2289580314036425  0.0083391354707698  0.0127796464100863
  0.7710419385963478  0.9916608935292290  0.5127796224100915
  0.7289580614036522  0.4916608635292194  0.0127796464100863
  0.2710419685963574  0.5083391064707710  0.5127796224100915
  0.2618126864087548  0.1270435826003601  0.3316331596153833
  0.7381873135912452  0.8729564173996398  0.8316331896153857
  0.7618126864087548  0.3729564173996399  0.3316331596153833
  0.2381873135912452  0.6270435826003602  0.8316331896153857
  0.2634729394233876  0.3800422872210820  0.1221852242172960
  0.7365270895766184  0.6199577127789180  0.6221852542173055
  0.7634729104233816  0.1199577127789180  0.1221852242172960
  0.2365270605766124  0.8800422872210820  0.6221852542173055
  0.4091807205681157  0.1284255775360818  0.1019793046570983
  0.5908192494318890  0.8715744004639163  0.6019793196570888
  0.9091807505681110  0.3715744304639189  0.1019793046570983
  0.0908192794318843  0.6284255995360837  0.6019793196570888
  0.4369531272185107  0.0682732989116604  0.4397302201537833
  0.5630468727814822  0.9317267230883414  0.9397301911537774
  0.9369531272185178  0.4317266930883390  0.4397302201537833
  0.0630468727814822  0.5682732769116586  0.9397301911537774
  0.1232227152671156  0.7419922808591385  0.2658058660546639
  0.8767772847328915  0.2580077191408614  0.7658058360546687
  0.6232227152671085  0.7580077191408615  0.2658058660546639
  0.3767772847328844  0.2419922808591385  0.7658058360546687
  0.9949055259240636  0.2650917437707003  0.6426246811851498
  0.0050945000759386  0.7349082272292937  0.1426246811851498
  0.4949054999240615  0.2349082562292996  0.6426246811851498
  0.5050944710759397  0.7650917727707063  0.1426246811851498
  0.1237707776488134  0.2666139093671959  0.0191220296192929
  0.8762292523511749  0.7333860906328112  0.5191220466192908
  0.6237707476488251  0.2333860906328041  0.0191220296192929
  0.3762292223511866  0.7666139093671888  0.5191220466192908
  0.1197570897481305  0.5056815104512472  0.3916506720190753
  0.8802428882518748  0.4943185195487411  0.8916506720190752
  0.6197571117481252  0.9943184895487528  0.3916506720190753
  0.3802429182518702  0.0056814804512589  0.8916506720190752
  0.2577134478158927  0.2295567044040319  0.6447941510433557
  0.7422865521840931  0.7704433105959728  0.1447941510433485
  0.7577134478159069  0.2704433105959729  0.6447941510433557
  0.2422865521841074  0.7295566894040272  0.1447941510433485
  0.3872265380842687  0.3108281909008379  0.2856965821043234
  0.6127734919157267  0.6891718090991763  0.7856965521043208
  0.8872265080842733  0.1891718090991693  0.2856965821043234
  0.1127734619157313  0.8108281909008237  0.7856965521043208
  0.6249405731036425  0.5187966588305837  0.3883860247865712
  0.3750594268963576  0.4812033411694234  0.8883860247865712
  0.1249405731036424  0.9812033411694163  0.3883860247865712
  0.8750594268963575  0.0187966588305766  0.8883860247865712
