Ag8 S6 Sn                               
  0.996700000000000     
    15.4715957003801581    0.0000000000000000    0.0000000000000000
     0.0000000000000000    7.6906344307005856    0.0000000000000000
     0.0000000000000000    0.0000000000000000   10.8521037148936497
   Ag   Sn   S 
    32     4    24
Direct
  0.0197648406660722  0.0227293258674647  0.0331789212030989
  0.9802351373339260  0.9772706701325349  0.5331789012031043
  0.5197648626660740  0.4772706701325349  0.0331789212030989
  0.4802351673339285  0.5227293298674651  0.5331789012031043
  0.0598678778888348  0.2384311899983141  0.2514855779321722
  0.9401321261111655  0.7615687950016882  0.7514855779321722
  0.5598678738888345  0.2615687950016882  0.2514855779321722
  0.4401321261111655  0.7384312049983118  0.7514855779321722
  0.1298320323826591  0.2783067119530131  0.7897522065396229
  0.8701679826173386  0.7216932580469915  0.2897522065396158
  0.6298320173826614  0.2216932880469798  0.7897522065396229
  0.3701679826173386  0.7783067419530085  0.2897522065396158
  0.2257223008049414  0.0136058744422344  0.0140721227295919
  0.7742776691950490  0.9863941545577716  0.5140720987295970
  0.7257223308049510  0.4863941245577549  0.0140721227295919
  0.2742776991950587  0.5136058454422284  0.5140720987295970
  0.2602361643967496  0.1410225718733758  0.3316977606132637
  0.7397638356032504  0.8589774281266243  0.8316977906132663
  0.7602361643967496  0.3589774281266241  0.3316977606132637
  0.2397638356032505  0.6410225718733757  0.8316977906132663
  0.2707205828328816  0.3797685207761571  0.1088148946686308
  0.7292794461671244  0.6202314792238429  0.6088149246686333
  0.7707205538328756  0.1202314792238429  0.1088148946686308
  0.2292794171671184  0.8797685207761571  0.6088149246686333
  0.4074658492707566  0.1116140845116211  0.1101999851292338
  0.5925341207292480  0.8883858934883772  0.6102000001292244
  0.9074658792707520  0.3883859234883796  0.1101999851292338
  0.0925341507292434  0.6116141065116228  0.6102000001292244
  0.4350927935714754  0.0709980844170332  0.4344993041583291
  0.5649072064285174  0.9290019375829687  0.9344992751583232
  0.9350927935714826  0.4290019075829661  0.4344993041583291
  0.0649072064285175  0.5709980624170313  0.9344992751583232
  0.1245072009111792  0.7378974319786901  0.2658197913805189
  0.8754927990888208  0.2621025680213099  0.7658197613805234
  0.6245072009111792  0.7621025680213099  0.2658197913805189
  0.3754927990888208  0.2378974319786901  0.7658197613805234
  0.0017455676118385  0.2675898751347940  0.6345068215327826
  0.9982544583881636  0.7324100958652000  0.1345068215327825
  0.5017455416118364  0.2324101248652060  0.6345068215327826
  0.4982544293881577  0.7675899041348000  0.1345068215327825
  0.1232296747946007  0.2722098824823952  0.0226097633324169
  0.8767703552053947  0.7277901175176119  0.5226097803324148
  0.6232296447946053  0.2277901175176048  0.0226097633324169
  0.3767703252053993  0.7722098824823881  0.5226097803324148
  0.1210465427115524  0.4864518716214632  0.4007546198738375
  0.8789534352884529  0.5135481583785322  0.9007546198738374
  0.6210465647115471  0.0135481283785368  0.4007546198738375
  0.3789534652884483  0.9864518416214678  0.9007546198738374
  0.2491543429964975  0.2281741684886340  0.6355183711830209
  0.7508456570035026  0.7718258465113708  0.1355183711830138
  0.7491543429964974  0.2718258465113708  0.6355183711830209
  0.2508456570035025  0.7281741534886292  0.1355183711830138
  0.3873036401457162  0.3147487480643812  0.2827727666865077
  0.6126963898542792  0.6852512519356188  0.7827727366865052
  0.8873036101457208  0.1852512519356187  0.2827727666865077
  0.1126963598542838  0.8147487480643812  0.7827727366865052
  0.6267222634950100  0.5062354967920271  0.3973770960369890
  0.3732777365049900  0.4937645032079800  0.8973770960369890
  0.1267222634950100  0.9937645032079729  0.3973770960369890
  0.8732777365049900  0.0062354967920200  0.8973770960369890
 
  0.00000000E+00  0.00000000E+00  0.00000000E+00
  0.00000000E+00  0.00000000E+00  0.00000000E+00
  0.00000000E+00  0.00000000E+00  0.00000000E+00
  0.00000000E+00  0.00000000E+00  0.00000000E+00
  0.00000000E+00  0.00000000E+00  0.00000000E+00
  0.00000000E+00  0.00000000E+00  0.00000000E+00
  0.00000000E+00  0.00000000E+00  0.00000000E+00
  0.00000000E+00  0.00000000E+00  0.00000000E+00
  0.00000000E+00  0.00000000E+00  0.00000000E+00
  0.00000000E+00  0.00000000E+00  0.00000000E+00
  0.00000000E+00  0.00000000E+00  0.00000000E+00
  0.00000000E+00  0.00000000E+00  0.00000000E+00
  0.00000000E+00  0.00000000E+00  0.00000000E+00
  0.00000000E+00  0.00000000E+00  0.00000000E+00
  0.00000000E+00  0.00000000E+00  0.00000000E+00
  0.00000000E+00  0.00000000E+00  0.00000000E+00
  0.00000000E+00  0.00000000E+00  0.00000000E+00
  0.00000000E+00  0.00000000E+00  0.00000000E+00
  0.00000000E+00  0.00000000E+00  0.00000000E+00
  0.00000000E+00  0.00000000E+00  0.00000000E+00
  0.00000000E+00  0.00000000E+00  0.00000000E+00
  0.00000000E+00  0.00000000E+00  0.00000000E+00
  0.00000000E+00  0.00000000E+00  0.00000000E+00
  0.00000000E+00  0.00000000E+00  0.00000000E+00
  0.00000000E+00  0.00000000E+00  0.00000000E+00
  0.00000000E+00  0.00000000E+00  0.00000000E+00
  0.00000000E+00  0.00000000E+00  0.00000000E+00
  0.00000000E+00  0.00000000E+00  0.00000000E+00
  0.00000000E+00  0.00000000E+00  0.00000000E+00
  0.00000000E+00  0.00000000E+00  0.00000000E+00
  0.00000000E+00  0.00000000E+00  0.00000000E+00
  0.00000000E+00  0.00000000E+00  0.00000000E+00
  0.00000000E+00  0.00000000E+00  0.00000000E+00
  0.00000000E+00  0.00000000E+00  0.00000000E+00
  0.00000000E+00  0.00000000E+00  0.00000000E+00
  0.00000000E+00  0.00000000E+00  0.00000000E+00
  0.00000000E+00  0.00000000E+00  0.00000000E+00
  0.00000000E+00  0.00000000E+00  0.00000000E+00
  0.00000000E+00  0.00000000E+00  0.00000000E+00
  0.00000000E+00  0.00000000E+00  0.00000000E+00
  0.00000000E+00  0.00000000E+00  0.00000000E+00
  0.00000000E+00  0.00000000E+00  0.00000000E+00
  0.00000000E+00  0.00000000E+00  0.00000000E+00
  0.00000000E+00  0.00000000E+00  0.00000000E+00
  0.00000000E+00  0.00000000E+00  0.00000000E+00
  0.00000000E+00  0.00000000E+00  0.00000000E+00
  0.00000000E+00  0.00000000E+00  0.00000000E+00
  0.00000000E+00  0.00000000E+00  0.00000000E+00
  0.00000000E+00  0.00000000E+00  0.00000000E+00
  0.00000000E+00  0.00000000E+00  0.00000000E+00
  0.00000000E+00  0.00000000E+00  0.00000000E+00
  0.00000000E+00  0.00000000E+00  0.00000000E+00
  0.00000000E+00  0.00000000E+00  0.00000000E+00
  0.00000000E+00  0.00000000E+00  0.00000000E+00
  0.00000000E+00  0.00000000E+00  0.00000000E+00
  0.00000000E+00  0.00000000E+00  0.00000000E+00
  0.00000000E+00  0.00000000E+00  0.00000000E+00
  0.00000000E+00  0.00000000E+00  0.00000000E+00
  0.00000000E+00  0.00000000E+00  0.00000000E+00
  0.00000000E+00  0.00000000E+00  0.00000000E+00
