Ag8  Si  S6                             
  0.99700000000000000     
    15.1789698710602785    0.0000000000000000    0.0000000000000000
     0.0000000000000000    7.5794179556959902    0.0000000000000000
     0.0000000000000000    0.0000000000000000   10.6791039838704673
   Ag   Si   S 
    32     4    24
Direct
  0.0137098687361494  0.0204041375099032  0.0325553922951446
  0.9862901092638489  0.9795958584900966  0.5325553722951571
  0.5137098907361511  0.4795958584900964  0.0325553922951446
  0.4862901392638513  0.5204041415099034  0.5325553722951571
  0.0654922657173034  0.2404819189766774  0.2534526802361489
  0.9345077382826968  0.7595180660233248  0.7534526802361490
  0.5654922617173032  0.2595180660233249  0.2534526802361489
  0.4345077382826969  0.7404819339766752  0.7534526802361490
  0.1298404690614726  0.2817916829106425  0.7835418732574140
  0.8701595459385251  0.7182082870893621  0.2835418732574069
  0.6298404540614749  0.2182083170893575  0.7835418732574140
  0.3701595459385251  0.7817917129106379  0.2835418732574069
  0.2272336837289350  0.0075261445968802  0.0078143452417374
  0.7727662862710555  0.9924738844031258  0.5078143212417496
  0.7272337137289445  0.4924738544031091  0.0078143452417374
  0.2727663162710650  0.5075261155968742  0.5078143212417496
  0.2610563983875600  0.1274979107784601  0.3263240526612622
  0.7389436016124401  0.8725020892215398  0.8263240826612648
  0.7610563983875599  0.3725020892215399  0.3263240526612622
  0.2389436016124401  0.6274979107784602  0.8263240826612648
  0.2642596459742612  0.3839225770993527  0.1176842454906006
  0.7357403830257448  0.6160774229006473  0.6176842754905960
  0.7642596169742552  0.1160774229006473  0.1176842454906006
  0.2357403540257388  0.8839225770993527  0.6176842754905960
  0.4098040569993704  0.1264735572482809  0.1044316985047131
  0.5901959130006341  0.8735264207517174  0.6044317135047108
  0.9098040869993659  0.3735264507517127  0.1044316985047131
  0.0901959430006296  0.6264735792482826  0.6044317135047108
  0.4356249384034936  0.0723207679947463  0.4394665079578091
  0.5643750615964993  0.9276792540052555  0.9394664789578032
  0.9356249384035007  0.4276792240052530  0.4394665079578091
  0.0643750615964993  0.5723207459947445  0.9394664789578032
  0.1231654189106921  0.7407713536130858  0.2672395952118643
  0.8768345810893079  0.2592286463869142  0.7672395652118690
  0.6231654189106921  0.7592286463869142  0.2672395952118643
  0.3768345810893079  0.2407713536130858  0.7672395652118690
  0.9915661376414049  0.2668576651306294  0.6489656274760063
  0.0084338883586044  0.7331423058693647  0.1489656274760063
  0.4915661116413956  0.2331423348693706  0.6489656274760063
  0.5084338593585913  0.7668576941306353  0.1489656274760063
  0.1219235708812576  0.2692910464838001  0.0206183819034837
  0.8780764591187449  0.7307089535162070  0.5206183989034744
  0.6219235408812551  0.2307089535161999  0.0206183819034837
  0.3780764291187423  0.7692910464837930  0.5206183989034744
  0.1207139455235462  0.5112525121986327  0.3884187594155121
  0.8792860324764591  0.4887475178013556  0.8884187594155122
  0.6207139675235409  0.9887474878013673  0.3884187594155121
  0.3792860624764474  0.0112524821986373  0.8884187594155122
  0.2625816499386770  0.2319417619006462  0.6483595009383750
  0.7374183500613231  0.7680582530993586  0.1483595009383679
  0.7625816499386769  0.2680582530993586  0.6483595009383750
  0.2374183500613230  0.7319417469006414  0.1483595009383679
  0.3868978253777234  0.3200101702448562  0.2872740131329732
  0.6131022046222721  0.6799898297551439  0.7872739831329707
  0.8868977953777279  0.1799898297551438  0.2872740131329732
  0.1131021746222766  0.8200101702448561  0.7872739831329707
  0.6257077675406864  0.5285620332848641  0.3869133292769437
  0.3742922324593135  0.4714379667151431  0.8869133292769437
  0.1257077675406864  0.9714379667151359  0.3869133292769437
  0.8742922324593136  0.0285620332848569  0.8869133292769437
