Ag8 S6 Sn                               
   1.00330000000000     
     7.7277540789110377    0.0000000000000000    0.0000000000000000
     0.0000000000000000    7.6728396922608733    0.0000000000000000
     0.0000000000000000    0.0000000000000000   10.9513264240458525
   Sn   Ag   S 
     2    16    12
Direct
 -0.0000000000000000  0.7537038488799634  0.1322187929794143
  0.5000000000652491  0.2462961510537145  0.6322188079182627
  0.0000000000000000  0.3169790869371826  0.1868917664927423
  0.5000000000652491  0.6830209129965025  0.6868917515162565
  0.2014921019462225  0.4888374992968265  0.3890350941864909
  0.2985079129959015  0.5111624709270559  0.8890350941676758
  0.7014920870040986  0.5111624709270559  0.8890350941676758
  0.7985079130611505  0.4888374992968265  0.3890350941864909
 -0.0000000000000000  0.3872857979050937  0.6199754924156299
  0.5000000000652491  0.6127142020285772  0.1199754923403691
  0.2908797464146666  0.1135535125726385  0.2867495618023413
  0.2091202535200842  0.8864465097760338  0.7867495320563436
  0.7908797464799158  0.8864465097760338  0.7867495320563436
  0.7091202535853334  0.1135535125726385  0.2867495618023413
  0.2703960510155993  0.1522665684817899  0.0168492443320999
  0.2296039490496499  0.8477334314518952  0.5168492593650312
  0.7703960509503500  0.8477334314518952  0.5168492593650312
  0.7296039489843937  0.1522665684817899  0.0168492443320999
  0.2420937745727119  0.2388446223764755  0.7552399675321162
  0.2579062104851641  0.7611553924121073  0.2552399674568697
  0.7420937895148358  0.7611553924121073  0.2552399674568697
  0.7579062104199150  0.2388446223764755  0.7552399675321162
  0.0000000000000000  0.2218593247559080  0.3997443567979033
  0.5000000000652491  0.7781406751777771  0.8997443567790951
 -0.0000000000000000  0.4964540766007506  0.0025584717038212
  0.5000000000652491  0.5035459233329274  0.5025584587028786
  0.0000000000000000  0.9867963942980191  0.9803835864394093
  0.5000000000652491  0.0132036098799153  0.4803835864205940
 -0.0000000000000000  0.7212973404630327  0.6388698393679456
  0.5000000000652491  0.2787026596032821  0.1388698393867608
 
  0.00000000E+00  0.00000000E+00  0.00000000E+00
  0.00000000E+00  0.00000000E+00  0.00000000E+00
  0.00000000E+00  0.00000000E+00  0.00000000E+00
  0.00000000E+00  0.00000000E+00  0.00000000E+00
  0.00000000E+00  0.00000000E+00  0.00000000E+00
  0.00000000E+00  0.00000000E+00  0.00000000E+00
  0.00000000E+00  0.00000000E+00  0.00000000E+00
  0.00000000E+00  0.00000000E+00  0.00000000E+00
  0.00000000E+00  0.00000000E+00  0.00000000E+00
  0.00000000E+00  0.00000000E+00  0.00000000E+00
  0.00000000E+00  0.00000000E+00  0.00000000E+00
  0.00000000E+00  0.00000000E+00  0.00000000E+00
  0.00000000E+00  0.00000000E+00  0.00000000E+00
  0.00000000E+00  0.00000000E+00  0.00000000E+00
  0.00000000E+00  0.00000000E+00  0.00000000E+00
  0.00000000E+00  0.00000000E+00  0.00000000E+00
  0.00000000E+00  0.00000000E+00  0.00000000E+00
  0.00000000E+00  0.00000000E+00  0.00000000E+00
  0.00000000E+00  0.00000000E+00  0.00000000E+00
  0.00000000E+00  0.00000000E+00  0.00000000E+00
  0.00000000E+00  0.00000000E+00  0.00000000E+00
  0.00000000E+00  0.00000000E+00  0.00000000E+00
  0.00000000E+00  0.00000000E+00  0.00000000E+00
  0.00000000E+00  0.00000000E+00  0.00000000E+00
  0.00000000E+00  0.00000000E+00  0.00000000E+00
  0.00000000E+00  0.00000000E+00  0.00000000E+00
  0.00000000E+00  0.00000000E+00  0.00000000E+00
  0.00000000E+00  0.00000000E+00  0.00000000E+00
  0.00000000E+00  0.00000000E+00  0.00000000E+00
  0.00000000E+00  0.00000000E+00  0.00000000E+00
