Ag8 S6 Sn                               
  0.997000000000000     
     7.7807245225859223    0.0000000000000000    0.0000000000000000
     0.0000000000000000    7.6654680439275369    0.0000000000000000
     0.0000000000000000    0.0000000000000000   10.8872306805397834
   Sn   Ag   S 
     2    16    12
Direct
 -0.0000000000000000  0.7538276731360549  0.1335229544117270
  0.5000000000652491  0.2461723267976230  0.6335229693505754
 -0.0000000000000000  0.3097608220164064  0.1845691931579592
  0.5000000000652491  0.6902391779172786  0.6845691781814733
  0.2014552415793557  0.4811975207506093  0.3888710087272577
  0.2985447733627683  0.5188024494732730  0.8888710087084354
  0.7014552266372317  0.5188024494732730  0.8888710087084354
  0.7985447734280174  0.4811975207506093  0.3888710087272577
  0.0000000000000000  0.3838783712264430  0.6191501408598490
  0.5000000000652491  0.6161216287072280  0.1191501407845882
  0.2924520821693133  0.1126084009625871  0.2869361822417816
  0.2075479177654376  0.8873916213860851  0.7869361524957769
  0.7924520822345624  0.8873916213860851  0.7869361524957769
  0.7075479178306867  0.1126084009625871  0.2869361822417816
  0.2760676423073054  0.1541673622151335  0.0125646554494887
  0.2239323577579438  0.8458326377185515  0.5125646704824129
  0.7760676422420563  0.8458326377185515  0.5125646704824129
  0.7239323576926875  0.1541673622151335  0.0125646554494887
  0.2422113570183605  0.2405846662662576  0.7574996215270493
  0.2577886280395155  0.7594153485223253  0.2574996214518027
  0.7422113719604845  0.7594153485223253  0.2574996214518027
  0.7577886279742664  0.2405846662662576  0.7574996215270493
 -0.0000000000000000  0.2134574244297444  0.4012237218823577
  0.5000000000652491  0.7865425755039406  0.9012237218635497
 -0.0000000000000000  0.4972903027409710  0.0011415090092542
  0.5000000000652491  0.5027096971927069  0.5011414960083188
  0.0000000000000000  0.9910376196803556  0.9833133852597961
  0.5000000000652491  0.0089623844975859  0.4833133852409809
 -0.0000000000000000  0.7187483024821688  0.6417262014308575
  0.5000000000652491  0.2812516975841461  0.1417262014496727
 
  0.00000000E+00  0.00000000E+00  0.00000000E+00
  0.00000000E+00  0.00000000E+00  0.00000000E+00
  0.00000000E+00  0.00000000E+00  0.00000000E+00
  0.00000000E+00  0.00000000E+00  0.00000000E+00
  0.00000000E+00  0.00000000E+00  0.00000000E+00
  0.00000000E+00  0.00000000E+00  0.00000000E+00
  0.00000000E+00  0.00000000E+00  0.00000000E+00
  0.00000000E+00  0.00000000E+00  0.00000000E+00
  0.00000000E+00  0.00000000E+00  0.00000000E+00
  0.00000000E+00  0.00000000E+00  0.00000000E+00
  0.00000000E+00  0.00000000E+00  0.00000000E+00
  0.00000000E+00  0.00000000E+00  0.00000000E+00
  0.00000000E+00  0.00000000E+00  0.00000000E+00
  0.00000000E+00  0.00000000E+00  0.00000000E+00
  0.00000000E+00  0.00000000E+00  0.00000000E+00
  0.00000000E+00  0.00000000E+00  0.00000000E+00
  0.00000000E+00  0.00000000E+00  0.00000000E+00
  0.00000000E+00  0.00000000E+00  0.00000000E+00
  0.00000000E+00  0.00000000E+00  0.00000000E+00
  0.00000000E+00  0.00000000E+00  0.00000000E+00
  0.00000000E+00  0.00000000E+00  0.00000000E+00
  0.00000000E+00  0.00000000E+00  0.00000000E+00
  0.00000000E+00  0.00000000E+00  0.00000000E+00
  0.00000000E+00  0.00000000E+00  0.00000000E+00
  0.00000000E+00  0.00000000E+00  0.00000000E+00
  0.00000000E+00  0.00000000E+00  0.00000000E+00
  0.00000000E+00  0.00000000E+00  0.00000000E+00
  0.00000000E+00  0.00000000E+00  0.00000000E+00
  0.00000000E+00  0.00000000E+00  0.00000000E+00
  0.00000000E+00  0.00000000E+00  0.00000000E+00
